
100
26067

414 415
288 288
843 845
444 444
528 529
552 552
339 339
639 640
900 901
72 72
561 561
264 265
654 656
624 624
45 46
111 113
528 529
858 859
798 798
822 824
138 138
351 351
576 577
366 367
231 231
921 923
636 636
399 399
477 477
699 700
759 760
780 780
333 335
966 968
762 764
270 271
171 172
429 431
261 261
876 878
9 10
816 818
162 162
810 812
432 433
132 132
984 986
417 419
978 979
321 323
237 238
555 556
195 195
576 578
708 708
642 642
6 6
666 668
267 269
453 454
858 859
867 867
132 132
90 92
753 754
432 432
708 708
645 647
990 990
861 861
993 995
903 903
567 569
408 408
162 163
840 840
492 492
486 486
294 294
330 331
504 505
642 643
309 310
150 150
594 596
945 945
561 562
978 979
180 181
795 797
537 538
30 32
174 175
720 721
819 819
132 132
684 684
888 888
240 241
828 829
